n = 10;

m = 16;
  	
22	32	55	61	35	16	63	38	39	34
72	54	52	41	33	61	28	48	21	8
52	67	33	55	10	59	3	12	64	73
9	44	63	70	40	51	39	38	8	29
71	39	37	74	52	35	51	16	32	1
69	40	9	30	20	64	34	6	64	20
52	2	57	11	22	59	9	12	15	50
21	32	32	67	67	6	44	48	5	57
53	62	41	57	57	74	23	24	1	24
58	44	27	52	11	16	71	53	43	16
7	15	53	66	40	38	41	35	13	44
41	16	45	27	33	55	12	34	68	43
18	49	1	14	40	24	29	29	65	16
20	37	24	20	30	47	50	7	4	58
6	17	67	66	49	61	58	50	44	41
71	39	37	74	52	35	51	16	32	1

